
Gurobi 6.5.2 (linux64) logging started Wed Sep 14 14:58:48 2016

Optimize a model with 21 rows, 33 columns and 77 nonzeros
Coefficient statistics:
  Matrix range    [1e+00, 2e+00]
  Objective range [8e+00, 1e+02]
  Bounds range    [1e+00, 1e+00]
  RHS range       [1e+00, 1e+00]
Presolve removed 8 rows and 3 columns
Presolve time: 0.00s
Presolved: 13 rows, 30 columns, 60 nonzeros
Variable types: 0 continuous, 30 integer (30 binary)
Found heuristic solution: objective 452.0000000

Root relaxation: objective 4.190000e+02, 17 iterations, 0.00 seconds

    Nodes    |    Current Node    |     Objective Bounds      |     Work
 Expl Unexpl |  Obj  Depth IntInf | Incumbent    BestBd   Gap | It/Node Time

     0     0  419.00000    0    2  452.00000  419.00000  7.30%     -    0s
     0     0  438.50000    0    2  452.00000  438.50000  2.99%     -    0s
     0     0  440.50000    0   12  452.00000  440.50000  2.54%     -    0s
H    0     0                     451.0000000  440.50000  2.33%     -    0s
     0     0  441.00000    0   12  451.00000  441.00000  2.22%     -    0s
     0     2  441.00000    0   11  451.00000  441.00000  2.22%     -    0s
*    3     2               3     447.0000000  446.00000  0.22%   2.3    0s

Cutting planes:
  Gomory: 2
  Cover: 6
  Clique: 1
  MIR: 1
  Lazy constraints: 3

Explored 8 nodes (41 simplex iterations) in 0.01 seconds
Thread count was 8 (of 8 available processors)

Optimal solution found (tolerance 1.00e-04)
Best objective 4.470000000000e+02, best bound 4.470000000000e+02, gap 0.0%
